1630
99 80 28 65 43 58 44 17 31 4 53 57 67 15 95 86 29 6 56 16 71 49 35 33 23 79 72 12 74 68 85 55 40 41 76 96 84 90 3 60 82 34 46 18 75 89 7 8 11 91 30 50 24 97 64 26 5 52 47 42 13 45 98 19 54 92 39 21 48 93 38 10 20 61 77 14 37 69 66 1 73 36 2 78 22 51 63 94 87 83 62 88 27 9 70 25 81 32 59 
